# Solution for model qis_1000_800_269
# Objective value = 2.9462307916793770e+02
x[0] 0
x[1] 0
x[2] 0
x[3] 1
x[4] 0
x[5] 0
x[6] 0
x[7] 1
x[8] 0
x[9] 1
x[10] 0
x[11] 0
x[12] 1
x[13] 1
x[14] 1
x[15] 0
x[16] 0
x[17] 0
x[18] 1
x[19] 0
x[20] 0
x[21] 0
x[22] 1
x[23] 0
x[24] 1
x[25] 0
x[26] 1
x[27] 0
x[28] 0
x[29] 0
x[30] 0
x[31] 1
x[32] 0
x[33] 1
x[34] 0
x[35] 1
x[36] 1
x[37] 0
x[38] 0
x[39] 1
x[40] 1
x[41] 0
x[42] 0
x[43] 1
x[44] 0
x[45] 0
x[46] 0
x[47] 0
x[48] 1
x[49] 0
x[50] 1
x[51] 0
x[52] 1
x[53] 0
x[54] 0
x[55] 1
x[56] 1
x[57] 1
x[58] 1
x[59] 1
x[60] 1
x[61] 1
x[62] 0
x[63] 0
x[64] 1
x[65] 1
x[66] 0
x[67] 0
x[68] 1
x[69] 0
x[70] 0
x[71] 0
x[72] 1
x[73] 0
x[74] 0
x[75] 1
x[76] 1
x[77] 0
x[78] 0
x[79] 0
x[80] 0
x[81] 0
x[82] 0
x[83] 1
x[84] 1
x[85] 0
x[86] 0
x[87] 1
x[88] 0
x[89] 0
x[90] 0
x[91] 0
x[92] 0
x[93] 1
x[94] 1
x[95] 0
x[96] 1
x[97] 0
x[98] 1
x[99] 0
x[100] 1
x[101] 0
x[102] 1
x[103] 1
x[104] 0
x[105] 1
x[106] 0
x[107] 0
x[108] 1
x[109] 1
x[110] 0
x[111] 0
x[112] 1
x[113] 0
x[114] 1
x[115] 0
x[116] 0
x[117] 1
x[118] 1
x[119] 1
x[120] 0
x[121] 0
x[122] 1
x[123] 1
x[124] 1
x[125] 0
x[126] 1
x[127] 1
x[128] 0
x[129] 1
x[130] 1
x[131] 1
x[132] 1
x[133] 0
x[134] 0
x[135] 1
x[136] 0
x[137] 1
x[138] 0
x[139] 0
x[140] 1
x[141] 0
x[142] 0
x[143] 0
x[144] 1
x[145] 0
x[146] 1
x[147] 0
x[148] 0
x[149] 0
x[150] 1
x[151] 0
x[152] 0
x[153] 0
x[154] 1
x[155] 1
x[156] 1
x[157] 0
x[158] 1
x[159] 0
x[160] 1
x[161] 0
x[162] 1
x[163] 1
x[164] 0
x[165] 0
x[166] 0
x[167] 0
x[168] 1
x[169] 0
x[170] 1
x[171] 0
x[172] 1
x[173] 1
x[174] 1
x[175] 0
x[176] 1
x[177] 1
x[178] 0
x[179] 0
x[180] 0
x[181] 0
x[182] 1
x[183] 1
x[184] 0
x[185] 1
x[186] 1
x[187] 0
x[188] 1
x[189] 1
x[190] 1
x[191] 0
x[192] 0
x[193] 0
x[194] 0
x[195] 0
x[196] 0
x[197] 1
x[198] 0
x[199] 1
x[200] 0
x[201] 0
x[202] 0
x[203] 0
x[204] 1
x[205] 0
x[206] 1
x[207] 1
x[208] 1
x[209] 1
x[210] 1
x[211] 1
x[212] 1
x[213] 0
x[214] 1
x[215] 1
x[216] 0
x[217] 1
x[218] 0
x[219] 1
x[220] 1
x[221] 0
x[222] 0
x[223] 1
x[224] 0
x[225] 1
x[226] 1
x[227] 1
x[228] 1
x[229] 0
x[230] 1
x[231] 1
x[232] 1
x[233] 1
x[234] 1
x[235] 0
x[236] 0
x[237] 1
x[238] 1
x[239] 0
x[240] 0
x[241] 1
x[242] 0
x[243] 0
x[244] 1
x[245] 0
x[246] 1
x[247] 1
x[248] 0
x[249] 1
x[250] 1
x[251] 1
x[252] 0
x[253] 1
x[254] 0
x[255] 0
x[256] 1
x[257] 1
x[258] 0
x[259] 0
x[260] 1
x[261] 1
x[262] 1
x[263] 1
x[264] 0
x[265] 1
x[266] 0
x[267] 1
x[268] 0
x[269] 0
x[270] 0
x[271] 1
x[272] 1
x[273] 1
x[274] 1
x[275] 0
x[276] 0
x[277] 1
x[278] 1
x[279] 0
x[280] 1
x[281] 0
x[282] 1
x[283] 0
x[284] 1
x[285] 0
x[286] 0
x[287] 1
x[288] 1
x[289] 1
x[290] 0
x[291] 1
x[292] 1
x[293] 0
x[294] 1
x[295] 0
x[296] 0
x[297] 0
x[298] 0
x[299] 0
x[300] 1
x[301] 0
x[302] 0
x[303] 0
x[304] 0
x[305] 0
x[306] 0
x[307] 1
x[308] 0
x[309] 0
x[310] 0
x[311] 0
x[312] 1
x[313] 1
x[314] 1
x[315] 0
x[316] 0
x[317] 1
x[318] 0
x[319] 0
x[320] 0
x[321] 0
x[322] 0
x[323] 0
x[324] 1
x[325] 1
x[326] 1
x[327] 1
x[328] 1
x[329] 1
x[330] 0
x[331] 1
x[332] 1
x[333] 1
x[334] 0
x[335] 1
x[336] 0
x[337] 1
x[338] 1
x[339] 1
x[340] 0
x[341] 1
x[342] 1
x[343] 1
x[344] 0
x[345] 0
x[346] 0
x[347] 1
x[348] 0
x[349] 1
x[350] 0
x[351] 0
x[352] 0
x[353] 0
x[354] 0
x[355] 0
x[356] 0
x[357] 0
x[358] 0
x[359] 1
x[360] 0
x[361] 1
x[362] 0
x[363] 1
x[364] 0
x[365] 0
x[366] 0
x[367] 1
x[368] 1
x[369] 0
x[370] 0
x[371] 0
x[372] 1
x[373] 0
x[374] 0
x[375] 1
x[376] 1
x[377] 1
x[378] 0
x[379] 1
x[380] 1
x[381] 0
x[382] 0
x[383] 0
x[384] 0
x[385] 1
x[386] 0
x[387] 1
x[388] 1
x[389] 1
x[390] 0
x[391] 1
x[392] 0
x[393] 1
x[394] 0
x[395] 0
x[396] 1
x[397] 1
x[398] 1
x[399] 0
x[400] 1
x[401] 0
x[402] 0
x[403] 0
x[404] 0
x[405] 0
x[406] 1
x[407] 1
x[408] 1
x[409] 0
x[410] 1
x[411] 1
x[412] 1
x[413] 0
x[414] 0
x[415] 0
x[416] 0
x[417] 0
x[418] 0
x[419] 0
x[420] 0
x[421] 1
x[422] 1
x[423] 0
x[424] 1
x[425] 1
x[426] 0
x[427] 0
x[428] 0
x[429] 1
x[430] 1
x[431] 0
x[432] 1
x[433] 1
x[434] 1
x[435] 1
x[436] 0
x[437] 0
x[438] 0
x[439] 0
x[440] 1
x[441] 1
x[442] 1
x[443] 0
x[444] 0
x[445] 0
x[446] 0
x[447] 1
x[448] 0
x[449] 1
x[450] 1
x[451] 0
x[452] 0
x[453] 0
x[454] 1
x[455] 0
x[456] 1
x[457] 1
x[458] 1
x[459] 0
x[460] 1
x[461] 0
x[462] 0
x[463] 1
x[464] 1
x[465] 0
x[466] 1
x[467] 0
x[468] 0
x[469] 0
x[470] 1
x[471] 1
x[472] 0
x[473] 1
x[474] 1
x[475] 0
x[476] 1
x[477] 1
x[478] 0
x[479] 1
x[480] 0
x[481] 1
x[482] 1
x[483] 0
x[484] 0
x[485] 0
x[486] 0
x[487] 1
x[488] 1
x[489] 1
x[490] 1
x[491] 0
x[492] 1
x[493] 0
x[494] 0
x[495] 0
x[496] 0
x[497] 0
x[498] 0
x[499] 1
x[500] 1
x[501] 0
x[502] 0
x[503] 0
x[504] 0
x[505] 0
x[506] 1
x[507] 1
x[508] 1
x[509] 1
x[510] 1
x[511] 0
x[512] 1
x[513] 1
x[514] 1
x[515] 1
x[516] 0
x[517] 1
x[518] 1
x[519] 0
x[520] 1
x[521] 1
x[522] 0
x[523] 0
x[524] 0
x[525] 0
x[526] 1
x[527] 0
x[528] 1
x[529] 1
x[530] 0
x[531] 0
x[532] 1
x[533] 0
x[534] 1
x[535] 1
x[536] 0
x[537] 1
x[538] 0
x[539] 0
x[540] 0
x[541] 0
x[542] 1
x[543] 0
x[544] 1
x[545] 1
x[546] 1
x[547] 1
x[548] 1
x[549] 1
x[550] 0
x[551] 1
x[552] 0
x[553] 1
x[554] 1
x[555] 1
x[556] 1
x[557] 0
x[558] 0
x[559] 0
x[560] 0
x[561] 0
x[562] 0
x[563] 0
x[564] 1
x[565] 0
x[566] 0
x[567] 0
x[568] 1
x[569] 0
x[570] 0
x[571] 1
x[572] 1
x[573] 1
x[574] 1
x[575] 1
x[576] 0
x[577] 0
x[578] 0
x[579] 0
x[580] 1
x[581] 0
x[582] 1
x[583] 1
x[584] 0
x[585] 0
x[586] 1
x[587] 1
x[588] 0
x[589] 0
x[590] 1
x[591] 1
x[592] 0
x[593] 1
x[594] 1
x[595] 1
x[596] 0
x[597] 0
x[598] 1
x[599] 1
x[600] 1
x[601] 0
x[602] 1
x[603] 0
x[604] 1
x[605] 0
x[606] 1
x[607] 0
x[608] 1
x[609] 0
x[610] 1
x[611] 1
x[612] 1
x[613] 0
x[614] 0
x[615] 0
x[616] 0
x[617] 1
x[618] 1
x[619] 0
x[620] 0
x[621] 0
x[622] 0
x[623] 0
x[624] 1
x[625] 1
x[626] 1
x[627] 0
x[628] 1
x[629] 0
x[630] 1
x[631] 1
x[632] 1
x[633] 1
x[634] 1
x[635] 1
x[636] 0
x[637] 1
x[638] 0
x[639] 1
x[640] 0
x[641] 1
x[642] 1
x[643] 1
x[644] 1
x[645] 0
x[646] 0
x[647] 1
x[648] 1
x[649] 0
x[650] 0
x[651] 0
x[652] 0
x[653] 0
x[654] 0
x[655] 0
x[656] 0
x[657] 1
x[658] 0
x[659] 1
x[660] 0
x[661] 0
x[662] 0
x[663] 0
x[664] 0
x[665] 0
x[666] 1
x[667] 1
x[668] 0
x[669] 1
x[670] 0
x[671] 1
x[672] 1
x[673] 1
x[674] 1
x[675] 0
x[676] 1
x[677] 1
x[678] 1
x[679] 0
x[680] 1
x[681] 0
x[682] 0
x[683] 0
x[684] 1
x[685] 1
x[686] 0
x[687] 1
x[688] 0
x[689] 0
x[690] 1
x[691] 1
x[692] 0
x[693] 1
x[694] 0
x[695] 1
x[696] 0
x[697] 0
x[698] 0
x[699] 0
x[700] 1
x[701] 0
x[702] 0
x[703] 1
x[704] 1
x[705] 1
x[706] 1
x[707] 1
x[708] 0
x[709] 1
x[710] 1
x[711] 1
x[712] 1
x[713] 0
x[714] 0
x[715] 1
x[716] 0
x[717] 0
x[718] 0
x[719] 0
x[720] 0
x[721] 1
x[722] 0
x[723] 0
x[724] 0
x[725] 1
x[726] 1
x[727] 0
x[728] 0
x[729] 0
x[730] 0
x[731] 1
x[732] 1
x[733] 1
x[734] 0
x[735] 1
x[736] 0
x[737] 1
x[738] 0
x[739] 0
x[740] 1
x[741] 0
x[742] 1
x[743] 1
x[744] 0
x[745] 0
x[746] 0
x[747] 0
x[748] 1
x[749] 1
x[750] 0
x[751] 0
x[752] 1
x[753] 0
x[754] 1
x[755] 1
x[756] 0
x[757] 1
x[758] 0
x[759] 0
x[760] 1
x[761] 0
x[762] 0
x[763] 0
x[764] 0
x[765] 1
x[766] 1
x[767] 0
x[768] 1
x[769] 0
x[770] 1
x[771] 1
x[772] 0
x[773] 0
x[774] 0
x[775] 1
x[776] 1
x[777] 1
x[778] 1
x[779] 0
x[780] 1
x[781] 1
x[782] 1
x[783] 1
x[784] 1
x[785] 0
x[786] 0
x[787] 0
x[788] 1
x[789] 1
x[790] 1
x[791] 1
x[792] 0
x[793] 0
x[794] 0
x[795] 0
x[796] 0
x[797] 1
x[798] 0
x[799] 1
x[800] 0
x[801] 0
x[802] 0
x[803] 1
x[804] 0
x[805] 1
x[806] 0
x[807] 1
x[808] 1
x[809] 0
x[810] 1
x[811] 0
x[812] 0
x[813] 0
x[814] 0
x[815] 1
x[816] 1
x[817] 1
x[818] 0
x[819] 0
x[820] 1
x[821] 0
x[822] 1
x[823] 0
x[824] 1
x[825] 1
x[826] 0
x[827] 0
x[828] 1
x[829] 0
x[830] 0
x[831] 0
x[832] 1
x[833] 0
x[834] 0
x[835] 1
x[836] 0
x[837] 0
x[838] 0
x[839] 1
x[840] 0
x[841] 0
x[842] 1
x[843] 0
x[844] 0
x[845] 0
x[846] 1
x[847] 0
x[848] 1
x[849] 1
x[850] 1
x[851] 1
x[852] 0
x[853] 0
x[854] 1
x[855] 1
x[856] 0
x[857] 1
x[858] 0
x[859] 1
x[860] 1
x[861] 0
x[862] 1
x[863] 0
x[864] 1
x[865] 0
x[866] 0
x[867] 1
x[868] 0
x[869] 1
x[870] 0
x[871] 0
x[872] 1
x[873] 0
x[874] 1
x[875] 0
x[876] 0
x[877] 1
x[878] 1
x[879] 0
x[880] 1
x[881] 0
x[882] 0
x[883] 1
x[884] 1
x[885] 1
x[886] 0
x[887] 1
x[888] 0
x[889] 0
x[890] 1
x[891] 0
x[892] 0
x[893] 0
x[894] 1
x[895] 1
x[896] 0
x[897] 0
x[898] 0
x[899] 1
x[900] 0
x[901] 0
x[902] 0
x[903] 1
x[904] 1
x[905] 1
x[906] 1
x[907] 0
x[908] 1
x[909] 1
x[910] 0
x[911] 1
x[912] 0
x[913] 1
x[914] 1
x[915] 1
x[916] 1
x[917] 0
x[918] 1
x[919] 1
x[920] 1
x[921] 1
x[922] 0
x[923] 1
x[924] 1
x[925] 0
x[926] 1
x[927] 1
x[928] 1
x[929] 1
x[930] 1
x[931] 0
x[932] 0
x[933] 0
x[934] 1
x[935] 0
x[936] 1
x[937] 1
x[938] 1
x[939] 0
x[940] 0
x[941] 1
x[942] 0
x[943] 0
x[944] 1
x[945] 0
x[946] 0
x[947] 0
x[948] 1
x[949] 0
x[950] 1
x[951] 1
x[952] 1
x[953] 1
x[954] 1
x[955] 1
x[956] 0
x[957] 0
x[958] 0
x[959] 0
x[960] 0
x[961] 0
x[962] 0
x[963] 1
x[964] 0
x[965] 0
x[966] 1
x[967] 0
x[968] 1
x[969] 1
x[970] 0
x[971] 0
x[972] 1
x[973] 1
x[974] 1
x[975] 0
x[976] 1
x[977] 0
x[978] 1
x[979] 0
x[980] 1
x[981] 0
x[982] 0
x[983] 0
x[984] 1
x[985] 0
x[986] 0
x[987] 1
x[988] 1
x[989] 1
x[990] 1
x[991] 0
x[992] 1
x[993] 0
x[994] 0
x[995] 1
x[996] 0
x[997] 0
x[998] 1
x[999] 0
